
(set-logic ALL) 

(declare-datatype MyList ((Nil) (Cons (head Real) (tail MyList)) )) 
(declare-fun l0 () MyList) 
(declare-fun l1 () MyList) 
(declare-fun l2 () MyList) 
(declare-fun l3 () MyList) 
(declare-fun i0 () Real) 
(declare-fun i1 () Real) 
(assert (not (= l0 l3)) )
(assert (is-Cons l3) )
(assert (is-Cons Nil) )
(assert (= l3 Nil) )
(assert (is-Cons l0) )
(assert (or (is-Cons Nil) (is-Nil Nil) (= l1 Nil) (= l1 l2)) )
(assert (is-Nil Nil) )
(assert (is-Cons l2) )
(check-sat)
